========================================================== 
File name: C:\DEGR\assets\definitions\MSRCPSP_Gen\200_40_64_5_B.def
Creation date: Wed May 03 10:46:23 CEST 2023
Website: http://imopse.ii.pwr.edu.pl/ 
Reference: 
Myszkowski P. B., Skowronski M. E., Olech L., Oslizlo K., 
Hybrid Ant Colony Optimization in solving Multi-Skill Resource-Constrained Project Scheduling Problem, 
Soft Computing, DOI: DOI 10.1007/s00500-014-1455-x 
========================================================== 
General characteristics: 
Tasks: 200
Resources: 40
Precedence relations: 63
Number of skill types: 5
========================================================== 
ResourceID 	 Salary 	 Skills 
1	 	 	71.7	 	 Q1: 3 	  Q3: 0 	  Q2: 0 	 
2	 	 	25.6	 	 Q2: 0 	  Q3: 3 	  Q0: 3 	  Q1: 0 	 
3	 	 	27.5	 	 Q3: 1 	  Q4: 1 	 
4	 	 	28.8	 	 Q4: 2 	  Q0: 1 	 
5	 	 	77.4	 	 Q0: 1 	  Q1: 1 	  Q4: 3 	  Q3: 0 	 
6	 	 	53.2	 	 Q0: 1 	  Q1: 2 	  Q3: 3 	  Q4: 1 	 
7	 	 	12.1	 	 Q3: 0 	  Q1: 2 	  Q4: 3 	  Q0: 2 	 
8	 	 	50.0	 	 Q2: 2 	  Q4: 3 	  Q3: 0 	 
9	 	 	47.6	 	 Q1: 0 	  Q3: 2 	  Q4: 3 	 
10	 	 	73.5	 	 Q2: 2 	  Q1: 3 	  Q0: 3 	  Q3: 0 	 
11	 	 	28.2	 	 Q2: 1 	 
12	 	 	40.2	 	 Q1: 2 	  Q4: 1 	  Q0: 2 	  Q2: 0 	 
13	 	 	26.9	 	 Q2: 0 	  Q0: 3 	 
14	 	 	47.2	 	 Q0: 3 	  Q3: 2 	  Q1: 3 	 
15	 	 	48.4	 	 Q1: 3 	  Q0: 0 	 
16	 	 	44.9	 	 Q4: 0 	  Q2: 0 	  Q0: 1 	 
17	 	 	89.8	 	 Q2: 1 	 
18	 	 	24.3	 	 Q4: 2 	  Q2: 0 	  Q0: 0 	  Q1: 1 	 
19	 	 	11.2	 	 Q4: 3 	  Q1: 1 	 
20	 	 	14.2	 	 Q2: 1 	 
21	 	 	27.3	 	 Q0: 2 	 
22	 	 	10.5	 	 Q2: 1 	  Q4: 1 	  Q0: 3 	 
23	 	 	92.4	 	 Q1: 3 	  Q3: 0 	  Q2: 2 	  Q4: 1 	 
24	 	 	89.3	 	 Q2: 0 	  Q0: 3 	  Q3: 2 	 
25	 	 	14.6	 	 Q2: 3 	  Q3: 2 	 
26	 	 	75.4	 	 Q4: 0 	  Q0: 1 	 
27	 	 	80.2	 	 Q4: 1 	 
28	 	 	21.4	 	 Q1: 2 	 
29	 	 	16.3	 	 Q3: 2 	 
30	 	 	23.3	 	 Q3: 3 	  Q4: 3 	  Q0: 0 	 
31	 	 	47.4	 	 Q1: 2 	  Q2: 0 	 
32	 	 	48.8	 	 Q3: 0 	  Q1: 2 	  Q4: 3 	 
33	 	 	76.7	 	 Q3: 3 	  Q4: 0 	  Q0: 0 	  Q2: 0 	 
34	 	 	30.6	 	 Q1: 3 	 
35	 	 	33.1	 	 Q4: 2 	  Q1: 2 	 
36	 	 	82.6	 	 Q3: 3 	  Q1: 2 	  Q4: 3 	  Q0: 3 	 
37	 	 	53.9	 	 Q0: 1 	  Q4: 0 	  Q3: 2 	  Q1: 1 	 
38	 	 	82.0	 	 Q4: 2 	  Q0: 2 	  Q2: 3 	  Q1: 3 	 
39	 	 	98.4	 	 Q0: 1 	  Q3: 1 	  Q1: 1 	 
40	 	 	96.6	 	 Q0: 3 	  Q4: 1 	  Q1: 0 	  Q2: 3 	 
========================================================== 
TaskID 	 Duration 	 Skill 	 Predecessor IDs 
1	29	Q2:	3
2	30	Q1:	0
3	27	Q4:	1
4	31	Q4:	1
5	33	Q1:	1
6	9	Q1:	1
7	24	Q1:	2
8	38	Q3:	3
9	34	Q4:	3
10	34	Q0:	2
11	22	Q0:	0
12	13	Q2:	2
13	19	Q1:	0
14	11	Q3:	0
15	12	Q3:	1
16	36	Q0:	1
17	12	Q4:	2
18	38	Q4:	0
19	15	Q3:	2
20	36	Q1:	1
21	30	Q3:	3
22	25	Q2:	2
23	25	Q2:	3
24	22	Q1:	1	9
25	37	Q0:	2
26	37	Q3:	0
27	10	Q4:	3
28	18	Q4:	0
29	35	Q1:	2
30	16	Q4:	3
31	19	Q3:	0
32	31	Q1:	2	8
33	14	Q3:	0
34	36	Q2:	1
35	13	Q3:	2
36	29	Q1:	0
37	18	Q3:	0
38	33	Q2:	0
39	20	Q3:	2
40	15	Q4:	3
41	40	Q0:	3
42	14	Q3:	3	5
43	35	Q4:	1
44	22	Q1:	2
45	14	Q2:	0	13
46	18	Q0:	2
47	26	Q0:	2	10
48	16	Q2:	3
49	26	Q3:	1
50	39	Q3:	1
51	32	Q0:	2
52	38	Q2:	3
53	32	Q1:	2
54	25	Q3:	3
55	22	Q0:	0
56	18	Q4:	2	7
57	14	Q0:	3
58	30	Q1:	1
59	18	Q0:	2
60	16	Q0:	3
61	8	Q1:	2
62	15	Q3:	0
63	29	Q1:	1
64	32	Q2:	0
65	11	Q4:	2
66	32	Q4:	1	7
67	13	Q3:	1	14
68	37	Q3:	1
69	19	Q0:	2	36
70	33	Q3:	0
71	37	Q3:	1
72	19	Q0:	1	41
73	36	Q3:	3
74	22	Q2:	1
75	20	Q1:	0	71
76	13	Q0:	0	19
77	18	Q4:	3	53
78	13	Q4:	1
79	14	Q1:	2
80	35	Q3:	3	73
81	15	Q2:	2
82	23	Q3:	1
83	23	Q4:	3
84	12	Q3:	2	47	45
85	40	Q0:	3
86	10	Q4:	3
87	10	Q2:	0
88	16	Q3:	3	36
89	39	Q2:	0
90	11	Q2:	2
91	9	Q4:	0	23	9
92	20	Q3:	1
93	29	Q1:	3
94	23	Q2:	1
95	21	Q3:	3
96	27	Q3:	0
97	15	Q3:	0
98	21	Q0:	0
99	21	Q3:	1
100	17	Q1:	0
101	24	Q4:	2
102	9	Q1:	0
103	37	Q3:	3
104	29	Q0:	2
105	40	Q0:	1	39
106	20	Q0:	1
107	20	Q0:	0	22
108	18	Q1:	3
109	33	Q0:	2	73
110	18	Q0:	3
111	20	Q2:	0	95
112	29	Q2:	2
113	31	Q1:	3
114	30	Q1:	0
115	38	Q1:	1	76
116	27	Q4:	1
117	35	Q1:	2
118	33	Q2:	1
119	25	Q4:	2
120	32	Q0:	2
121	39	Q0:	3	92
122	25	Q4:	3	80
123	16	Q0:	2
124	34	Q4:	1
125	14	Q2:	2	63
126	37	Q0:	0	55	73
127	27	Q1:	3
128	10	Q4:	2
129	16	Q2:	3
130	30	Q3:	0
131	16	Q3:	3
132	11	Q4:	2
133	20	Q3:	3
134	13	Q0:	0
135	12	Q4:	3	86
136	35	Q3:	2
137	15	Q3:	0
138	10	Q1:	3	85
139	12	Q3:	3	95
140	22	Q2:	3
141	40	Q1:	1
142	21	Q0:	0
143	10	Q2:	0
144	16	Q0:	0
145	32	Q0:	3
146	33	Q0:	3	67
147	11	Q4:	3
148	18	Q1:	2
149	39	Q3:	0	105
150	38	Q0:	1	67
151	27	Q2:	3
152	25	Q1:	1	141	54
153	34	Q0:	3	137
154	39	Q1:	3
155	37	Q2:	1
156	25	Q1:	2	61	88
157	40	Q3:	0
158	24	Q2:	3
159	23	Q4:	3
160	18	Q1:	1
161	16	Q2:	3
162	38	Q1:	2
163	16	Q1:	1	74
164	14	Q1:	2
165	9	Q3:	3
166	38	Q2:	3	78
167	32	Q0:	1	108
168	20	Q0:	3
169	11	Q0:	1
170	39	Q1:	2
171	32	Q0:	2
172	24	Q3:	0
173	39	Q2:	1	63
174	33	Q3:	0
175	15	Q0:	3
176	35	Q3:	3	74	114
177	25	Q1:	3
178	21	Q1:	1
179	16	Q3:	2	56
180	12	Q1:	0
181	30	Q0:	1	150
182	38	Q4:	2
183	17	Q4:	2	12	63
184	13	Q3:	1	6
185	31	Q1:	1
186	15	Q1:	1
187	36	Q0:	3
188	35	Q0:	3	114	57
189	37	Q4:	1
190	20	Q0:	2
191	17	Q2:	3
192	35	Q4:	2	154
193	40	Q0:	0	108
194	28	Q1:	1	90	105
195	26	Q4:	2	152
196	18	Q2:	2
197	25	Q1:	3	103	93
198	33	Q1:	1	98	132
199	12	Q3:	0	149
200	40	Q1:	2
========================================================== 